
Gurobi 10.0.1 (linux64) logging started Sun Nov 26 16:00:14 2023

Set parameter LogFile to value "ArtificialInstance/ExperimentV2/S4T5K2/AdRo/gurobiSpRo27.txt"
Gurobi Optimizer version 10.0.1 build v10.0.1rc0 (linux64)

CPU model: AMD EPYC 7H12 64-Core Processor, instruction set [SSE2|AVX|AVX2]
Thread count: 128 physical cores, 128 logical processors, using up to 32 threads

Academic license 656792 - for non-commercial use only - registered to b.___@student.vu.nl
Optimize a model with 14124 rows, 13216 columns and 51431 nonzeros
Model fingerprint: 0x7aab489a
Variable types: 1 continuous, 13215 integer (13215 binary)
Coefficient statistics:
  Matrix range     [1e+00, 4e+01]
  Objective range  [1e+00, 2e+01]
  Bounds range     [1e+00, 1e+00]
  RHS range        [1e+00, 1e+00]
Presolve removed 5626 rows and 5248 columns
Presolve time: 0.19s
Presolved: 8498 rows, 7968 columns, 31212 nonzeros
Variable types: 1 continuous, 7967 integer (7967 binary)
Found heuristic solution: objective 100.1861358

Root relaxation: objective 7.933855e+01, 2099 iterations, 0.07 seconds (0.04 work units)

    Nodes    |    Current Node    |     Objective Bounds      |     Work
 Expl Unexpl |  Obj  Depth IntInf | Incumbent    BestBd   Gap | It/Node Time

H    0     0                      79.3385473   65.28080  17.7%     -    0s
     0     0          -    0        79.33855   79.33855  0.00%     -    0s

Explored 1 nodes (3458 simplex iterations) in 0.37 seconds (0.27 work units)
Thread count was 32 (of 128 available processors)

Solution count 2: 79.3385 100.186 

Optimal solution found (tolerance 1.00e-04)
Best objective 7.933854730913e+01, best bound 7.933854730913e+01, gap 0.0000%
